8392705
8198
268435462
65576
7880976
2088
32832
264832
272
66176
135267328
133280
8392705
8396802
23609360
16810048
66056
133120
262272
6832144
1049616
107495440
6832144
8400897
16826368
35651584
69206016
134218752
268435460
